(set-info :smt-lib-version 2.6)
(set-logic ALL)
(declare-sort Nat$ 0)
(declare-fun to_int$ (Nat$) Int)
(declare-fun nat_step$ (Nat$) Nat$)
(set-info :source |Generator: Rodin SMT Plug-in|)
(set-info :license "https://creativecommons.org/licenses/by-nc/4.0/")
(set-info :category "industrial")
(set-info :status unsat)
(declare-fun f (Int Int) Bool)
(declare-fun g (Int Int) Bool)
(declare-fun j () Int)
(declare-fun k () Int)
(declare-fun l () Nat$)
(declare-fun n () Int)
(assert (! (< 0 n) :named hyp1))
(assert (! (and (forall ((x Int) (x0 Nat$)) (=> (f x (to_int$ x0)) (and (<= 1 x) (<= x n) (<= 0 (to_int$ x0))))) (forall ((x1 Int) (x2 Int) (x3 Int)) (=> (and (f x1 x2) (f x1 x3)) (= x2 x3))) (forall ((x4 Int)) (=> (and (<= 1 x4) (<= x4 n)) (exists ((x5 Int)) (f x4 x5)))) (forall ((x6 Int) (x7 Int) (x8 Int)) (=> (and (f x7 x6) (f x8 x6)) (= x7 x8)))) :named hyp2))
(assert (! (forall ((x9 Nat$) (x10 Nat$)) (=> (g (to_int$ x9) (to_int$ x10)) (and (<= 0 (to_int$ x9)) (<= 0 (to_int$ x10))))) :named hyp3))
(assert (! (and (forall ((x11 Int) (x12 Nat$)) (=> (g x11 (to_int$ x12)) (and (<= 1 x11) (<= x11 n) (<= 0 (to_int$ x12))))) (forall ((x13 Int) (x14 Int) (x15 Int)) (=> (and (g x13 x14) (g x13 x15)) (= x14 x15))) (forall ((x16 Int)) (=> (and (<= 1 x16) (<= x16 n)) (exists ((x17 Int)) (g x16 x17)))) (forall ((x18 Int) (x19 Int) (x20 Int)) (=> (and (g x19 x18) (g x20 x18)) (= x19 x20)))) :named hyp4))
(assert (! (forall ((x21 Int)) (= (exists ((x22 Int)) (g x22 x21)) (exists ((x23 Int)) (f x23 x21)))) :named hyp5))
(assert (! (and (<= 1 k) (<= k n)) :named hyp6))
(assert (! (forall ((i Int) (j0 Int)) (=> (and (<= 1 i) (<= i (- k 1)) (<= (+ i 1) j0) (<= j0 n)) (forall ((x24 Int) (x25 Int)) (=> (and (g i x25) (g j0 x24)) (< x25 x24))))) :named hyp7))
(assert (! (<= 0 (to_int$ l)) :named hyp8))
(assert (! (and (<= k j) (<= j n)) :named hyp9))
(assert (! (and (<= k (to_int$ l)) (<= (to_int$ l) j)) :named hyp10))
(assert (! (exists ((x26 Int)) (and (exists ((x27 Int)) (and (<= k x27) (<= x27 j) (g x27 x26))) (forall ((x28 Int)) (=> (exists ((x29 Int)) (and (<= k x29) (<= x29 j) (g x29 x28))) (<= x26 x28))) (g (to_int$ (to_int$ l)) x26))) :named hyp11))
(assert (! (exists ((x30 Int)) (g (to_int$ (to_int$ l)) x30)) :named hyp12))
(assert (! (forall ((x31 Int) (x32 Int) (x33 Int)) (=> (and (g x31 x32) (g x31 x33)) (= x32 x33))) :named hyp13))
(assert (! (exists ((b Int)) (forall ((x34 Int)) (=> (exists ((x35 Int)) (and (<= k x35) (<= x35 j) (g x35 x34))) (<= b x34)))) :named hyp14))
(assert (! (forall ((x36 Int) (x37 Int)) (=> (and (exists ((x38 Int)) (and (= x38 (+ j 1)) (g x38 x37))) (g (to_int$ (to_int$ l)) x36)) (< x37 x36))) :named hyp15))
(assert (! (exists ((x39 Int) (x40 Int)) (and (= x40 (+ j 1)) (g x40 x39))) :named hyp16))
(assert (! (exists ((b0 Int)) (forall ((x41 Int)) (=> (exists ((x42 Int)) (and (<= k x42) (<= x42 (+ j 1)) (g x42 x41))) (<= b0 x41)))) :named hyp17))
(assert (! (forall ((a Int) (b1 Int)) (=> (and (<= 1 a) (<= a n) (<= 1 b1) (<= b1 n) (not (= a b1))) (forall ((x43 Int) (x44 Int)) (= (or (and (g x43 x44) (not (or (exists ((x45 Int)) (and (= x43 a) (g b1 x45))) (exists ((x46 Int)) (and (= x43 b1) (g a x46)))))) (and (= x43 a) (g b1 x44) (not (exists ((x47 Int)) (and (= x43 b1) (g a x47))))) (and (= x43 b1) (g a x44))) (or (and (g x43 x44) (not (or (= x43 a) (= x43 b1)))) (and (= x43 a) (g b1 x44)) (and (= x43 b1) (g a x44))))))) :named hyp18))
(assert (! (forall ((a0 Int) (b2 Int)) (=> (and (<= 1 a0) (<= a0 n) (<= 1 b2) (<= b2 n) (not (= a0 b2))) (and (forall ((x48 Int) (x49 Nat$)) (=> (or (and (= x48 a0) (g b2 (to_int$ x49))) (and (= x48 b2) (g a0 (to_int$ x49)))) (and (<= 1 x48) (<= x48 n) (<= 0 (to_int$ x49))))) (forall ((x50 Int) (x51 Int) (x52 Int)) (=> (and (or (and (= x50 a0) (g b2 x51)) (and (= x50 b2) (g a0 x51))) (or (and (= x50 a0) (g b2 x52)) (and (= x50 b2) (g a0 x52)))) (= x51 x52))) (forall ((x53 Int) (x54 Int) (x55 Int)) (=> (and (or (and (= x54 a0) (g b2 x53)) (and (= x54 b2) (g a0 x53))) (or (and (= x55 a0) (g b2 x53)) (and (= x55 b2) (g a0 x53)))) (= x54 x55)))))) :named hyp19))
(assert (! (forall ((a1 Int) (b3 Int)) (=> (and (<= 1 a1) (<= a1 n) (<= 1 b3) (<= b3 n) (not (= a1 b3))) (and (forall ((x56 Int) (x57 Nat$)) (=> (and (g x56 (to_int$ x57)) (not (or (= x56 a1) (= x56 b3)))) (and (<= 1 x56) (<= x56 n) (<= 0 (to_int$ x57))))) (forall ((x58 Int) (x59 Int) (x60 Int)) (=> (and (g x58 x59) (not (or (= x58 a1) (= x58 b3))) (g x58 x60)) (= x59 x60))) (forall ((x61 Int) (x62 Int) (x63 Int)) (=> (and (g x62 x61) (not (or (= x62 a1) (= x62 b3))) (g x63 x61) (not (or (= x63 a1) (= x63 b3)))) (= x62 x63)))))) :named hyp20))
(assert (! (forall ((a2 Int) (b4 Int)) (=> (and (<= 1 a2) (<= a2 n) (<= 1 b4) (<= b4 n) (not (= a2 b4))) (forall ((x64 Int)) (= (or (exists ((x65 Int)) (and (g x64 x65) (not (or (= x64 a2) (= x64 b4))))) (exists ((x66 Int)) (and (= x64 a2) (g b4 x66))) (exists ((x67 Int)) (and (= x64 b4) (g a2 x67)))) (and (<= 1 x64) (<= x64 n)))))) :named hyp21))
(assert (! (forall ((a3 Int) (b5 Int)) (=> (and (<= 1 a3) (<= a3 n) (<= 1 b5) (<= b5 n) (not (= a3 b5))) (forall ((x68 Int)) (not (and (exists ((x69 Int)) (and (g x69 x68) (not (or (= x69 a3) (= x69 b5))))) (or (g b5 x68) (g a3 x68))))))) :named hyp22))
(assert (! (not (forall ((x70 Int)) (not (and (exists ((x71 Int)) (g x70 x71)) (<= k x70) (<= x70 j))))) :named hyp23))
(assert (! (not (= k n)) :named hyp24))
(assert (! (not (= j n)) :named hyp25))
(assert (! (not (forall ((x72 Int)) (not (and (exists ((x73 Int)) (g x72 x73)) (<= k x72) (<= x72 (+ j 1)))))) :named hyp26))
(assert (! (not (exists ((x74 Int) (x75 Int)) (and (= x74 (+ j 1)) (exists ((x76 Int)) (and (<= k x76) (<= x76 (+ j 1)) (g x76 x75))) (forall ((x77 Int)) (=> (exists ((x78 Int)) (and (<= k x78) (<= x78 (+ j 1)) (g x78 x77))) (<= x75 x77))) (g x74 x75)))) :named goal))
(assert (= (to_int$ (nat_step$ l)) (to_int$ l)))
(check-sat)
(exit)
